Version identifier: 12.10.0.0 | 2019-11-26 | 843d4de
CPXPARAM_LPMethod                                4
CPXPARAM_Threads                                 1
CPXPARAM_SolutionType                            2
CPXPARAM_TimeLimit                               10000
Tried aggregator 1 time.
LP Presolve eliminated 9512 rows and 43008 columns.
Aggregator did 90 substitutions.
Reduced LP has 33598 rows, 140205 columns, and 781668 nonzeros.
Presolve time = 0.71 sec. (239.21 ticks)
Parallel mode: none, using 1 thread for barrier
Number of nonzeros in lower triangle of A*A' = 1023212
Using Approximate Minimum Degree ordering
Total time for automatic ordering = 0.75 sec. (742.62 ticks)
Summary statistics for Cholesky factor:
  Rows in Factor            = 33598
  Integer space required    = 285198
  Total non-zeros in factor = 2183768
  Total FP ops to factor    = 221740216
 Itn      Primal Obj        Dual Obj  Prim Inf Upper Inf  Dual Inf Inf Ratio
   0  -6.9543175e+10  -9.3836676e+06  9.09e+06  6.11e+05  1.77e+09  1.00e+00
   1  -6.7231811e+10   4.2679251e+08  8.94e+06  6.01e+05  1.39e+09  1.38e+00
   2  -6.6240184e+10   3.2787567e+07  8.85e+06  5.95e+05  1.29e+09  1.53e+00
   3  -6.4956375e+10  -4.4426201e+09  8.70e+06  5.85e+05  7.84e+08  3.53e+00
   4  -6.4369444e+10  -4.8154874e+09  8.62e+06  5.80e+05  6.90e+08  4.20e+00
   5  -6.1689303e+10  -6.2809367e+09  8.27e+06  5.56e+05  2.13e+08  8.46e+04
   6  -1.2996564e+10  -1.4534755e+09  1.68e+06  1.13e+05  3.20e+07  2.27e+09
   7  -8.0062672e+08  -1.1912787e+08  9.97e+04  6.70e+03  1.99e+06  1.12e+08
   8  -1.6330580e+08  -3.4374428e+07  1.93e+04  1.30e+03  4.39e+05  4.33e+08
   9  -4.3174202e+07  -2.1151361e+07  4.16e+03  2.80e+02  2.00e+05  9.53e+08
  10  -2.9258575e+07  -1.8449845e+07  2.41e+03  1.62e+02  1.51e+05  1.26e+09
  11  -2.1369635e+07  -1.5776424e+07  1.42e+03  9.55e+01  1.03e+05  1.82e+09
  12  -1.8069404e+07  -1.3903296e+07  1.01e+03  6.77e+01  6.93e+04  2.65e+09
  13  -1.6371264e+07  -1.2656640e+07  7.93e+02  5.33e+01  4.68e+04  3.84e+09
  14  -1.5614499e+07  -1.2242222e+07  6.98e+02  4.69e+01  3.93e+04  4.53e+09
  15  -1.4382803e+07  -1.1497520e+07  5.43e+02  3.65e+01  2.59e+04  6.66e+09
  16  -1.4085622e+07  -1.1211180e+07  5.06e+02  3.40e+01  2.07e+04  8.09e+09
  17  -1.3729850e+07  -1.1201820e+07  4.62e+02  3.10e+01  2.06e+04  7.16e+09
  18  -1.3397123e+07  -1.1168281e+07  4.24e+02  2.85e+01  2.01e+04  6.37e+09
  19  -1.3396869e+07  -1.1167994e+07  4.24e+02  2.85e+01  2.01e+04  6.37e+09
  20  -1.3394914e+07  -1.1167711e+07  4.24e+02  2.85e+01  2.01e+04  6.37e+09
  21  -1.3394785e+07  -1.1164763e+07  4.24e+02  2.85e+01  2.01e+04  6.38e+09
  22  -1.3387271e+07  -1.1123430e+07  4.23e+02  2.84e+01  1.95e+04  6.58e+09
  23  -1.3391072e+07  -1.1126814e+07  4.24e+02  2.85e+01  1.96e+04  6.56e+09
  24  -1.3387413e+07  -1.1114952e+07  4.23e+02  2.84e+01  1.94e+04  6.62e+09
  25  -1.3163928e+07  -1.0934578e+07  3.98e+02  2.67e+01  1.69e+04  7.78e+09
  26  -1.3016622e+07  -1.0897383e+07  3.81e+02  2.56e+01  1.64e+04  8.06e+09
  27  -1.2675916e+07  -1.0740062e+07  3.41e+02  2.29e+01  1.41e+04  9.54e+09
  28  -1.2429897e+07  -1.0635767e+07  3.11e+02  2.09e+01  1.25e+04  1.09e+10
  29  -1.2014918e+07  -1.0353468e+07  2.62e+02  1.76e+01  8.26e+03  1.71e+10
  30  -1.1688815e+07  -1.0203293e+07  2.23e+02  1.50e+01  5.92e+03  2.43e+10
  31  -1.1088787e+07  -1.0058289e+07  1.51e+02  1.02e+01  3.65e+03  4.06e+10
  32  -1.0870734e+07  -9.9277038e+06  1.25e+02  8.42e+00  1.67e+03  8.58e+10
  33  -1.0477479e+07  -9.8654743e+06  7.86e+01  5.28e+00  7.36e+02  1.80e+11
  34  -1.0185863e+07  -9.8342893e+06  4.43e+01  2.98e+00  3.31e+02  3.60e+11
  35  -1.0133874e+07  -9.8220772e+06  3.83e+01  2.57e+00  1.92e+02  5.57e+11
  36  -1.0041501e+07  -9.8215255e+06  2.76e+01  1.85e+00  1.86e+02  5.21e+11
  37  -1.0032345e+07  -9.8107244e+06  2.65e+01  1.78e+00  1.10e+02  6.25e+11
  38  -9.9858133e+06  -9.7984581e+06  2.18e+01  1.47e+00  7.71e+01  9.19e+11
  39  -9.8722651e+06  -9.7941370e+06  1.02e+01  6.84e-01  6.39e+01  1.01e+12
  40  -9.8034170e+06  -9.7799555e+06  3.39e+00  2.28e-01  2.79e+01  2.10e+12
  41  -9.7749919e+06  -9.7716986e+06  5.77e-01  3.87e-02  6.54e+00  5.37e+12
  42  -9.7689815e+06  -9.7689785e+06  8.10e-04  5.43e-05  1.31e-02  4.66e+15
  43  -9.7689730e+06  -9.7689730e+06  1.32e-03  5.43e-09  3.71e-04  1.45e+19
Barrier time = 9.55 sec. (8142.24 ticks)

Total time on 1 threads = 9.55 sec. (8142.24 ticks)
Solver name: CPLEX
Solve time: 9.574807374
Termination status: OPTIMAL
Result count: 1
Primal status: FEASIBLE_POINT
Dual status: FEASIBLE_POINT
